Instance: E101-14s.dat
Class:  2
  100 --- number of customers (no depot)
   19 --- number of vehicles
  152 --- number of items
Capacity - height - width of vehicles
   112     40     20
Node - x - y - demand
    0    35.0    35.0     0.0
    1    41.0    49.0    10.0
    2    35.0    17.0     7.0
    3    55.0    45.0    13.0
    4    55.0    20.0    19.0
    5    15.0    30.0    26.0
    6    25.0    30.0     3.0
    7    20.0    50.0     5.0
    8    10.0    43.0     9.0
    9    55.0    60.0    16.0
   10    30.0    60.0    16.0
   11    20.0    65.0    12.0
   12    50.0    35.0    19.0
   13    30.0    25.0    23.0
   14    15.0    10.0    20.0
   15    30.0     5.0     8.0
   16    10.0    20.0    19.0
   17     5.0    30.0     2.0
   18    20.0    40.0    12.0
   19    15.0    60.0    17.0
   20    45.0    65.0     9.0
   21    45.0    20.0    11.0
   22    45.0    10.0    18.0
   23    55.0     5.0    29.0
   24    65.0    35.0     3.0
   25    65.0    20.0     6.0
   26    45.0    30.0    17.0
   27    35.0    40.0    16.0
   28    41.0    37.0    16.0
   29    64.0    42.0     9.0
   30    40.0    60.0    21.0
   31    31.0    52.0    27.0
   32    35.0    69.0    23.0
   33    53.0    52.0    11.0
   34    65.0    55.0    14.0
   35    63.0    65.0     8.0
   36     2.0    60.0     5.0
   37    20.0    20.0     8.0
   38     5.0     5.0    16.0
   39    60.0    12.0    31.0
   40    40.0    25.0     9.0
   41    42.0     7.0     5.0
   42    24.0    12.0     5.0
   43    23.0     3.0     7.0
   44    11.0    14.0    18.0
   45     6.0    38.0    16.0
   46     2.0    48.0     1.0
   47     8.0    56.0    27.0
   48    13.0    52.0    36.0
   49     6.0    68.0    30.0
   50    47.0    47.0    13.0
   51    49.0    58.0    10.0
   52    27.0    43.0     9.0
   53    37.0    31.0    14.0
   54    57.0    29.0    18.0
   55    63.0    23.0     2.0
   56    53.0    12.0     6.0
   57    32.0    12.0     7.0
   58    36.0    26.0    18.0
   59    21.0    24.0    28.0
   60    17.0    34.0     3.0
   61    12.0    24.0    13.0
   62    24.0    58.0    19.0
   63    27.0    69.0    10.0
   64    15.0    77.0     9.0
   65    62.0    77.0    20.0
   66    49.0    73.0    25.0
   67    67.0     5.0    25.0
   68    56.0    39.0    36.0
   69    37.0    47.0     6.0
   70    37.0    56.0     5.0
   71    57.0    68.0    15.0
   72    47.0    16.0    25.0
   73    44.0    17.0     9.0
   74    46.0    13.0     8.0
   75    49.0    11.0    18.0
   76    49.0    42.0    13.0
   77    53.0    43.0    14.0
   78    61.0    52.0     3.0
   79    57.0    48.0    23.0
   80    56.0    37.0     6.0
   81    55.0    54.0    26.0
   82    15.0    47.0    16.0
   83    14.0    37.0    11.0
   84    11.0    31.0     7.0
   85    16.0    22.0    41.0
   86     4.0    18.0    35.0
   87    28.0    18.0    26.0
   88    26.0    52.0     9.0
   89    26.0    35.0    15.0
   90    31.0    67.0     3.0
   91    15.0    19.0     1.0
   92    22.0    22.0     2.0
   93    18.0    24.0    22.0
   94    26.0    27.0    27.0
   95    25.0    24.0    20.0
   96    22.0    27.0    11.0
   97    25.0    21.0    12.0
   98    19.0    21.0    10.0
   99    20.0    26.0     9.0
  100    18.0    18.0    17.0
Node - number of items - h - w for each item
    0   0
    1   2    4   15   27    2
    2   1   13   10
    3   1    7   10
    4   2   29    3   16    2
    5   2    9    7   28    3
    6   2   27    3   20    2
    7   1   20    2
    8   2   18   10   12    9
    9   2   18    4   20    2
   10   1   13    8
   11   1   30    2
   12   2   16   10   28    2
   13   1    5   16
   14   2    5   13   29    4
   15   2   22    3   17    3
   16   2   15    5   32    3
   17   2    5   13   18    7
   18   2    5   13   10    8
   19   1   19    6
   20   2   28    4   33    3
   21   1   13    5
   22   2    8    5   29    2
   23   1    5   17
   24   2   34    4   23    3
   25   2   18    9   31    3
   26   1   19    4
   27   1    8   14
   28   2   35    4   17    3
   29   2    6   11   15    7
   30   1   34    3
   31   1   14    5
   32   2    5   16   13    5
   33   2    6   15   20    4
   34   1    6   13
   35   1   12   10
   36   2   13    9   17    3
   37   2    4   13   19    4
   38   2    9    6   26    2
   39   1    8   14
   40   2    7   16   11    4
   41   1    7   15
   42   2    4   18   17    9
   43   2    6    9   16    2
   44   1   21    3
   45   1   14    8
   46   1    5   15
   47   1   26    3
   48   1    6   14
   49   2    7   16    6    9
   50   2    5    9   30    4
   51   2   15    7   15    5
   52   2   15    8   20    2
   53   2    6   17    6   15
   54   1   19    2
   55   2    4   13   14    6
   56   2   13    9    8    8
   57   1   17   10
   58   1    4   16
   59   1    4   14
   60   2   18    6   12    6
   61   2    5   10    4   10
   62   1    7   15
   63   2   15    7   36    4
   64   2    5   14    9    5
   65   1    6   10
   66   2   10   10   20    6
   67   1   23    3
   68   1   12    6
   69   1   22    3
   70   1    4    9
   71   2    7   18   10    9
   72   1   34    4
   73   2    6   17    9    4
   74   2    7   14   25    4
   75   1    5   12
   76   1   29    2
   77   2    7   12    9    6
   78   1   15    7
   79   2   15    6   26    3
   80   1   17    3
   81   1   18    4
   82   2    4   14    8   11
   83   1   18    7
   84   2    6   15   18    3
   85   1    6   15
   86   1   33    2
   87   1   31    3
   88   1    7    9
   89   2   18    8   17    5
   90   1   11    4
   91   1    8   13
   92   1   27    4
   93   1   14    6
   94   2    5   17   16    4
   95   1   16    7
   96   2   17   10   16    4
   97   2    6   14   21    3
   98   2    4   16    5   14
   99   2    7   11   13   10
  100   2    5   17   18    9
